18,1,14,2,6,1,4,1,9,2,1,4,13,3,7,2,2,3,17,2,9,4,5,4,3,3,12,3,20,3,11,3,16,4,3,5,15,5,19,3,8,5;9,1,13,1,2,1,15,2,17,1,20,2,1,5,12,2,7,3,4,4,16,2,8,3,14,5,11,4,6,5,18,4,5,5;5,1,3,1,1,3,14,4,5,2,7,1,10,2,6,4,2,4,8,2,13,5,17,5,4,5,11,2,12,4,20,4,18,3,16,5,10,5,19,5;20,1,1,1,14,3,13,2,8,1,10,1,12,1,6,3,4,2,5,3,15,4,3,2,17,4,10,3,2,5,9,5,16,3,11,5,18,5,7,5,19,4;14,1,15,1,1,2,6,2,9,3,15,3,2,2,18,2,4,3,13,4,16,1,17,3,11,1,7,4,8,4,10,4,3,4,19,1,19,2,12,5,20,5;
